NAME : amz0839.4641520_140020.tour
COMMENT : Cost = 4641520_140020
COMMENT : Found by LKH-AMZ [Keld Helsgaun] Sun May 11 12:47:07 2025
COMMENT : TW viol.: 0 #: 0
TYPE : TOUR
DIMENSION : 169
TOUR_SECTION
114
6
27
135
137
131
61
152
158
7
45
69
79
116
91
118
90
164
42
143
121
43
99
85
156
72
82
13
103
74
80
67
63
15
159
5
108
16
19
34
62
1
22
101
122
140
35
29
44
78
65
123
2
113
138
25
9
54
110
56
150
40
17
32
151
93
142
128
38
81
66
87
28
47
31
4
10
133
129
124
39
95
134
46
52
166
30
106
86
165
97
70
33
88
60
50
119
24
157
104
20
127
169
11
77
102
37
64
147
14
126
107
117
160
96
73
141
51
18
139
105
136
89
48
21
130
163
132
57
161
71
92
12
83
149
26
115
75
53
144
125
84
3
112
155
58
49
41
98
146
167
8
59
68
76
55
109
23
145
168
162
154
153
100
36
120
148
94
111
-1
EOF
